D = 3;
T = 9;
N = 2;

MinDT=0;
MaxDT=3;
MaxDL=3;

incompatibles=[{2},{1,6},{},{},{},{2},{},{},{}];
esSupervisor=[true,true,false,false,false,true,false,true,false];

diasPedidos=array2d(1..9, 1..3, [false,false,true,  false,true,false, false,false,false,  true,false,false,  false,false,true,
false,false,true,  true,false,false,  false,true,false,  false,false,true]);

turnosPedidos=array2d(1..9, 1..3, [turno1, turno2,turno3,  libra,turno3,turno1,   libra,libra,libra,  turno1,libra,libra,  libra,libra,turno2,
libra,turno3,turno2,  libra,libra,libra,  turno2,libra,libra,  turno2,libra,libra]);